Water Network: ../data/d10_HG_SP_5_5.dat 

*******************************************************************************
*******************************************************************************

gurobi solver outputs:

Gurobi 12.0.1: Set parameter LogToConsole to value 1
  tech:outlev = 1
Set parameter Presolve to value 1
  pre:solve = 1
Set parameter TimeLimit to value 3600
  lim:time = 3600
  alg:iisfind = 1
Set parameter IISMethod to value 0
  alg:iismethod = 0
  alg:iisforce = 1
Set parameter NumericFocus to value 1
  alg:numericfocus = 1
  cvt:socp = 2
Set parameter Method to value 4
  alg:method = 4
Set parameter NodeMethod to value 1
  mip:nodemethod = 1
Set parameter ConcurrentMethod to value 3
  alg:concurrentmethod = 3
Set parameter NonConvex to value 2
  qp:nonconvex = 2
Set parameter VarBranch to value 0
  mip:varbranch = 0
Set parameter OBBT to value 1
  mip:obbt = 1
  alg:start = 1
Set parameter FeasibilityTol to value 1e-06
  alg:feastol = 1e-06
Set parameter InfUnbdInfo to value 1
Gurobi Optimizer version 12.0.1 build v12.0.1rc0 (linux64 - "Debian GNU/Linux 12 (bookworm)")

CPU model: Intel(R) Xeon(R) Gold 6130 CPU @ 2.10GHz, instruction set [SSE2|AVX|AVX2|AVX512]
Thread count: 32 physical cores, 32 logical processors, using up to 32 threads

Non-default parameters:
TimeLimit  3600
Method  4
ConcurrentMethod  3
NodeMethod  1
OBBT  1
VarBranch  0
IISMethod  0
InfUnbdInfo  1
NonConvex  2
NumericFocus  1
Presolve  1

Optimize a model with 533 rows, 3449 columns and 3583 nonzeros
Model fingerprint: 0x6f455ea6
Model has 179 simple general constraints
  179 ABS
Model has 179 general nonlinear constraints (6444 nonlinear terms)
Variable types: 3449 continuous, 0 integer (0 binary)
Coefficient statistics:
  Matrix range     [1e-11, 2e+01]
  Objective range  [1e+02, 3e+03]
  Bounds range     [1e+00, 6e+05]
  RHS range        [2e-03, 5e+02]
Presolve model has 179 nlconstr
Added 4475 variables to disaggregate expressions.
Presolve added 504 rows and 191 columns
Presolve time: 0.09s
Presolved: 13567 rows, 8295 columns, 32084 nonzeros
Presolved model has 358 SOS constraint(s)
Presolved model has 2327 bilinear constraint(s)
Presolved model has 179 nonlinear constraint(s)

Solving non-convex MINLP

Variable types: 7937 continuous, 358 integer (358 binary)

Deterministic concurrent LP optimizer: primal and dual simplex (primal and dual model)
Showing primal log only...

Root relaxation presolved: 10677 rows, 5247 columns, 30354 nonzeros


Root simplex log...

Iteration    Objective       Primal Inf.    Dual Inf.      Time
       0    1.6223844e+06   4.949829e+07   2.695892e+09      7s
Concurrent spin time: 2.04s (can be avoided by choosing Method=3)

Solved with primal simplex

Root relaxation: objective 1.622384e+06, 5910 iterations, 3.22 seconds (0.26 work units)

    Nodes    |    Current Node    |     Objective Bounds      |     Work
 Expl Unexpl |  Obj  Depth IntInf | Incumbent    BestBd   Gap | It/Node Time

     0     0 1622384.35    0  487          - 1622384.35      -     -   10s
     0     0 1622384.35    0  857          - 1622384.35      -     -   23s
     0     0 1622384.35    0  866          - 1622384.35      -     -   25s
     0     0 1622384.35    0  485          - 1622384.35      -     -   66s
     0     0 1622384.35    0  511          - 1622384.35      -     -   71s
     0     0 1622384.35    0  505          - 1622384.35      -     -  117s
     0     0 1622384.35    0  896          - 1622384.35      -     -  130s
     0     0 1622384.35    0  504          - 1622384.35      -     -  158s
     0     0 1622384.35    0  935          - 1622384.35      -     -  164s
     0     0 1622384.35    0  483          - 1622384.35      -     -  201s
     0     0 1622384.35    0  958          - 1622384.35      -     -  209s
     0     0 1622384.35    0  482          - 1622384.35      -     -  241s
     0     0 1622384.35    0  482          - 1622384.35      -     -  245s
     0     2 1622384.35    0  482          - 1622384.35      -     -  247s
     3     8 1622384.35    2  800          - 1622384.35      -   705  273s
     7    16 1622384.35    3  869          - 1622384.35      -   843  310s
    15    32 1622384.35    4  854          - 1622384.35      -   921  342s
    31    64 1622384.35    5  883          - 1622384.35      -  1175  375s
    63    96 1622384.35    6  885          - 1622384.35      -  1112  397s
    95   178 1622384.35    7  875          - 1622384.35      -  1154  438s
   179   348 1622384.35    9  843          - 1622384.35      -   937  509s
   351   600 1622384.35   13  809          - 1622384.35      -   746  619s
   635  1335 1622384.35   18  785          - 1622384.35      -   636  871s
  1458  3187 1622384.35   32  659          - 1622384.35      -   479 1313s
  1936  3187 1622384.35   20  719          - 1622384.35      -   421 1317s
  2708  3187 1622384.35   33  659          - 1622384.35      -   381 1321s
  3830  4420 1622384.35   63  494          - 1622384.35      -   351 2419s
  3941  4420 1622384.35   64  471          - 1622384.35      -   353 2420s
  6017  5278 1622384.35   34  651          - 1622384.35      -   351 3235s
  7519  5927 1622384.35   51  540          - 1622384.35      -   354 3610s

Cutting planes:
  Cover: 139
  Implied bound: 1264
  Clique: 26
  MIR: 26
  Flow cover: 128
  RLT: 458
  Relax-and-lift: 111

Explored 8438 nodes (2982730 simplex iterations) in 3611.52 seconds (47.35 work units)
Thread count was 32 (of 32 available processors)

Solution count 0

Time limit reached
Best objective -, best bound 1.622384352000e+06, gap -
Gurobi 12.0.1: time limit, without a feasible solution
2.98273e+06 simplex iterations
8438 branching nodes
*******************************************************************************

q [*,*]
:     1   2     3      4   5   6   7   8   9      10         11        12    13 :=
4     0   .     .      .   .   .   .   .   .     .          .          .      .
7     0   .     .      .   .   .   .   .   .     .          .          .      .
8     .   .     .      .   .   .   .   .   .     .         0           .      .
17    .   .     .      .   .   .   .   .   .   -0.00312     .          .      .
20    .   .     .      .   .   .   0   .   .     .          .          .      .
21    .   .     .      .   0   .   .   .   .     .          .          .      .
24    .   .     .      .   .   .   .   .   .    0           .          .      .
34    .   .     .      .   0   .   .   .   .     .          .          .      .
45    .   .     .      .   .   .   0   .   .     .          .          .      .
52    .   0     .      .   .   .   .   .   .     .          .          .      .
58    .   .     .      .   0   .   .   .   .     .          .          .      .
68    .   .     .      .   .   .   .   .   .     .          .        -0.011   .
75    .   .     .      .   .   .   .   .   .     .          .          .      0
80    .   .     .      .   .   .   .   0   .     .          .         0       .
84    .   .     .      0   .   .   .   .   .     .          .          .      .
86    .   .     .      0   .   .   .   .   .     .          .          .      .
101   .   .     .      .   .   .   .   .   .     .        -0.00488     .      .
121   .   .     .      .   .   0   .   .   .     .          .          .      .
122   .   .     .      .   .   .   0   .   .     .          .          .      .
126   .   .    0       .   .   .   .   .   .     .          .          .      .
128   .   .   -0.976   .   .   .   .   .   .     .          .          .      .
137   .   .     .      .   .   .   .   0   .     .          .          .      .
142   .   .     .      .   .   .   .   .   .     .          .          .      0
149   .   .     .      .   .   .   .   .   0     .          .          .      .

:    14  16  18  19  20  21  22  23      24     25  26  27  28  29  30  31  32 :=
11    .   .   .   .   .   .   .   .     .        .   0   .   .   .   .   .   .
18    .   .   .   .   0   .   .   .     .        .   .   .   .   .   .   .   .
24    .   .   .   .   .   .   0   .     .        .   .   .   .   .   .   .   .
26    .   .   .   .   .   .   0   .     .        .   .   .   .   .   .   .   .
28    .   .   .   .   0   .   .   .     .        .   .   .   .   .   .   .   .
38    .   0   .   .   .   .   .   .     .        .   .   .   .   .   .   .   .
39    .   0   .   .   .   .   .   .     .        .   .   .   .   .   .   .   .
52    0   .   .   .   .   .   .   .     .        .   .   .   .   .   .   .   .
58    .   .   .   .   .   0   .   .     .        .   .   .   .   .   .   .   .
59    .   .   .   .   .   .   .   .     .        0   .   .   .   .   .   .   .
69    .   .   .   .   .   .   .   .     .        .   .   .   .   .   .   0   .
72    .   .   .   .   .   .   .   .     .        0   .   .   .   .   .   .   .
73    .   .   .   .   .   .   .   .   -0.02745   .   .   .   .   .   .   .   .
75    .   .   .   .   .   .   .   .     .        .   .   .   .   .   .   .   0
78    .   .   0   .   .   .   .   .     .        .   .   .   .   .   .   .   .
79    .   .   .   .   .   .   .   0     .        .   .   .   .   .   .   .   .
82    .   .   .   .   .   .   .   .     .        .   .   0   .   .   .   .   .
89    .   .   .   .   .   .   .   .     .        .   .   0   .   .   .   .   .
102   .   .   .   .   .   .   .   .     .        .   .   .   0   .   .   .   .
103   .   .   .   0   .   .   .   .     .        .   .   .   .   .   .   .   .
108   .   .   .   .   .   .   .   .     .        0   .   .   .   .   .   .   .
112   .   .   .   .   .   .   .   0     .        .   .   .   .   .   .   .   .
113   .   .   .   .   .   .   .   .     .        .   .   .   .   .   0   .   .
133   .   .   .   0   .   .   .   .     .        .   .   .   .   .   .   .   .
134   .   .   .   .   .   .   .   .     .        .   .   .   .   .   .   .   0
146   .   .   .   .   .   0   .   .     .        .   .   .   .   .   .   .   .
147   .   .   .   0   .   .   .   .     .        .   .   .   .   .   .   .   .
148   .   .   .   .   .   .   .   .     .        .   .   0   .   .   .   .   .
155   .   .   .   .   .   .   .   .     .        .   .   .   .   0   .   .   .

:    33  34  35  36  37  38  40  41  42  43  44  45  47  48  49  51  52  53  54 :=
2     .   .   .   .   .   .   0   .   .   .   .   .   .   .   .   .   .   .   .
10    .   .   .   .   .   .   .   .   .   .   .   .   .   .   .   .   .   .   0
13    .   .   .   .   .   .   .   .   .   .   .   .   .   .   0   .   .   .   .
22    .   .   .   .   .   .   .   .   .   .   .   .   .   .   .   .   .   .   0
26    .   .   .   .   .   .   .   .   .   .   .   .   .   .   .   .   .   .   0
31    .   .   .   .   .   .   .   .   .   .   .   .   .   .   .   .   .   0   .
34    .   .   .   .   .   .   .   .   .   .   .   .   .   .   .   .   0   .   .
40    .   0   .   .   .   .   .   .   .   .   .   .   .   .   .   .   .   .   .
44    .   .   .   .   .   .   .   .   .   .   .   .   .   .   0   .   .   .   .
48    .   .   .   .   .   .   .   .   .   .   0   .   .   .   .   .   .   .   .
51    .   .   .   .   0   .   .   .   .   .   .   .   .   .   .   .   .   .   .
54    .   .   .   .   .   .   .   .   0   .   .   .   .   .   .   .   .   .   .
64    .   .   .   .   .   .   .   .   0   .   .   .   .   .   .   .   .   .   .
65    .   .   .   .   .   .   0   .   .   .   .   0   .   .   .   .   .   .   .
70    .   .   .   .   .   0   .   .   .   .   .   .   .   .   .   .   .   .   .
76    .   .   .   0   .   .   .   .   .   .   .   .   .   .   .   .   .   .   .
77    .   .   .   .   0   .   .   .   .   .   .   .   .   .   .   .   .   .   .
81    .   .   .   .   .   .   .   .   .   .   .   .   0   .   .   .   .   .   .
82    .   .   .   .   .   .   .   .   .   .   .   .   .   .   .   0   .   .   .
85    .   .   .   .   .   .   0   .   .   .   .   .   .   .   .   .   .   .   .
90    .   .   .   .   .   .   .   0   .   .   .   .   .   .   .   .   .   .   .
93    .   .   .   .   .   .   .   .   .   0   .   .   .   .   .   .   .   .   .
98    0   .   .   .   .   .   .   .   .   .   .   .   .   .   .   .   .   .   .
106   .   .   .   .   .   .   .   .   .   .   .   .   .   0   .   .   .   .   .
112   .   .   .   .   .   .   .   .   .   .   .   .   .   .   .   .   0   .   .
124   .   .   .   .   .   .   .   .   .   .   .   .   .   .   .   0   .   .   .
136   .   .   .   .   .   .   .   0   .   .   .   .   .   .   .   .   .   .   .
146   .   .   0   .   .   .   .   .   .   .   .   .   .   .   .   .   .   .   .

:        55     56  57  58  59     62    63  64  65  66  67  69  70  71    :=
1       .        .   .   .   .     .      .   .   0   .   .   .   .   .
6      0         .   .   .   .     .      .   .   .   .   .   .   .   .
23      .        0   .   .   .     .      .   .   .   .   .   .   .   .
47      .        .   .   .   .     .      0   .   .   .   .   .   .   .
70      .        .   .   0   .     .      .   .   .   .   .   .   .   .
95      .        .   .   .   .     .      .   .   .   .   .   0   .   .
97    -0.00431   .   .   .   .     .      .   .   .   .   .   .   .   .
99      .        .   .   .   .     .      .   0   .   .   .   .   .   .
105     .        .   .   .   .     .      .   .   .   .   .   .   0   .
111     .        .   .   .   .     .      .   .   .   0   .   .   .   .
116     .        .   .   .   .     .      0   .   .   .   .   .   .   .
117     .        .   .   .   0     .      .   .   .   .   .   .   .   .
129     .        .   .   .   .     .      .   .   .   .   .   .   .   0
135     .        .   .   .   .     .      .   .   .   .   0   .   .   .
138     .        .   .   .   .   -0.684   .   .   .   .   .   .   .   .
150     .        .   0   .   .     .      .   .   .   .   .   .   .   .

:        73     75  76  77  78  79  80  81  82  83  84  85      86     89  90 :=
2       .        .   .   .   .   .   .   .   .   .   .   .    0         .   .
5       .        .   .   .   .   .   .   .   .   .   .   0     .        .   .
9       .        .   .   .   .   .   .   0   .   .   .   .     .        .   .
19      .        .   .   .   0   .   .   .   .   .   .   .     .        .   .
29      .        0   .   .   .   .   .   .   .   .   .   .     .        .   .
41      .        .   .   .   .   0   .   .   .   .   .   .     .        .   .
43      .        .   .   .   .   0   .   .   .   .   .   .     .        .   .
53      .        .   .   .   .   .   .   .   .   .   .   0     .        .   .
56      .        .   .   .   .   .   .   .   .   .   .   .    0         .   .
63      .        .   0   .   .   .   .   .   .   .   .   .     .        .   .
67      .        .   .   .   .   .   0   .   .   .   .   .     .        .   .
82      .        .   .   .   .   .   .   .   .   .   .   .     .        0   .
107     .        .   .   0   .   .   .   .   .   .   .   .     .        .   .
114   -0.02158   .   .   .   .   .   .   .   .   .   .   .     .        .   .
116     .        .   0   .   .   .   .   .   .   .   .   .     .        .   .
118     .        .   .   .   .   .   .   .   .   .   .   .     .        .   0
119     .        .   .   .   .   .   .   .   .   .   .   .   -0.00271   .   .
122     .        .   .   .   .   .   .   .   .   .   0   .     .        .   .
130     .        .   .   .   .   .   .   .   0   .   .   .     .        .   .
141     .        .   .   .   .   .   .   .   .   0   .   .     .        .   .
145     .        .   .   .   .   .   0   .   .   .   .   .     .        .   .

:    91  93  94  95      98         99    100 102     103   105     106    107 :=
3     .   .   .   .     .          .        .   .     .       .    0         .
12    .   .   .   .     .          .        0   .     .       .     .        .
16    .   .   .   0     .          .        .   .     .       .     .        .
25    0   .   .   .     .          .        .   .     .       .     .        .
27    .   .   .   .     .          .        .   .     .       .     .        0
30    .   .   .   .    0           .        .   .     .       .     .        .
35    .   0   .   .     .          .        .   .     .       .     .        .
36    .   .   .   .     .          .        0   .     .       .     .        .
37    .   .   .   .     .          .        .   .     .       0     .        .
42    .   .   0   .     .          .        .   .     .       .     .        .
55    .   .   .   .     .          .        .   0     .       .     .        .
60    .   .   .   .     .          .        .   .   -0.0145   .     .        .
61    .   .   .   .     .          .        .   .     .       .   -0.00732   .
66    .   .   .   .     .          .        .   0     .       .     .        .
72    0   .   .   .     .          .        .   .     .       .     .        .
87    .   .   .   .   -0.00508     .        .   .     .       .     .        .
104   .   .   .   .     .        -0.00263   .   .     .       .     .        .
109   .   .   .   .     .          .        .   .    0        .     .        .
111   .   .   .   .     .          .        .   0     .       .     .        .
115   .   .   .   .     .          .        .   .     .       .    0         .

:       108        109   110 111 112 113     114    115 117 118 120 121 122 123 :=
3       .          .       .   .   .   .     .        0   .   .   .   .   .   .
14      .          .       .   .   0   .     .        .   .   .   .   .   .   .
18      .          .       .   0   .   .     .        .   .   .   .   .   .   .
20      .          .       .   .   .   0     .        .   .   .   .   .   .   .
33      .          .       .   .   .   .     .        .   .   .   .   .   0   .
39      .          .       .   .   .   .     .        .   .   .   .   0   .   .
46      .        -0.0198   .   .   .   .     .        .   .   .   .   .   .   .
50      .          .       .   .   .   .     .        .   .   .   .   .   .   0
59     0           .       .   .   .   .     .        .   .   .   .   .   .   .
79      .          .       .   .   0   .     .        .   .   .   .   .   .   .
90      .          .       0   .   .   .     .        .   .   .   .   .   .   .
91      .          .       .   .   .   .     .        .   .   0   .   .   .   .
92    -0.00944     .       .   .   .   .     .        .   .   .   .   .   .   .
96      .          .       .   .   .   .   -0.00888   .   .   .   .   .   .   .
116     .          .       .   .   .   .     .        .   0   .   .   .   .   .
125     .         0        .   .   .   .     .        .   .   .   .   .   .   .
127     .          .       .   .   .   .     .        .   .   .   0   .   .   .
129     .          .       .   .   .   .     .        .   .   .   .   .   .   0
132     .          .       .   .   .   .     .        .   0   .   .   .   .   .
140     .          .       .   .   .   .     .        .   .   .   .   0   .   .
153     .         0        .   .   .   .     .        .   .   .   .   .   .   .

:   124    125  126 127    128   129 130 132 133     134    135 136 137 140 141 :=
9     .     .     .   .     .      .   .   .   .     .        .   .   .   .   0
15    .     .     .   .     .      .   .   0   .     .        .   .   .   .   .
44    .     .     .   .     .      .   .   .   .    0         .   .   .   .   .
49    .     .     .   .     .      .   .   .   .     .        .   .   .   0   .
50    .     .     .   .     .      0   .   .   .     .        .   .   .   .   .
57    .     .     .   0     .      .   .   0   .     .        .   .   .   .   .
62    .     .     .   .   -0.806   .   .   .   .     .        .   .   .   .   .
64    .     .     .   .     .      .   .   .   .     .        .   0   .   .   .
74    .     .     .   .     .      .   .   .   .   -0.00959   .   .   .   .   .
94    .     .     .   .     .      .   .   .   .     .        .   0   .   .   .
99    .     .     .   .     .      .   .   .   .     .        .   0   .   .   .
100   .     .     .   .     .      .   .   .   .     .        .   .   0   .   .
103   .     .     .   .     .      .   .   .   0     .        .   .   .   .   .
123   .    0      .   .     .      .   .   .   .     .        .   .   .   .   .
124   .     .     .   .     .      .   0   .   .     .        .   .   .   .   .
131   .   -0.17   .   .     .      .   .   .   .     .        .   .   .   .   .
143   0     .     .   .     .      .   .   .   .     .        .   .   .   .   .
144   .     .     0   .     .      .   .   .   .     .        .   .   .   .   .
148   .     .     0   .     .      .   .   .   .     .        .   .   .   .   .
153   .     .     .   .     .      .   .   .   .     .        0   .   .   .   .
154   .     .     .   .     .      .   .   .   .     .        .   .   .   .   0

:   142 143 145 146 147 148     149    150 151    152   154 155    :=
9     .   .   .   .   .   .       .      .   0     .      .   .
15    .   .   .   .   .   .       .      0   .     .      .   .
32    0   .   .   .   .   .       .      .   .     .      .   .
58    .   .   .   0   .   .       .      .   .     .      .   .
71    .   .   .   .   .   .       .      .   .     .      .   0
83    .   .   0   .   .   .       .      .   .     .      .   .
88    .   .   .   .   .   .      0       .   .     .      0   .
110   .   .   .   0   .   .       .      .   .     .      .   .
120   .   0   .   .   .   .       .      .   .     .      .   .
123   .   .   .   .   0   .       .      .   .     .      .   .
135   .   .   .   .   .   .       .      .   .     .      0   .
139   .   .   .   .   .   .       .      .   .   -0.344   .   .
141   .   .   0   .   .   .       .      .   .     .      .   .
144   .   .   .   .   .   0       .      .   .     .      .   .
151   .   .   .   .   .   .       .      .   .     .      0   .
152   .   .   .   .   .   .   -122.344   .   .     .      .   .
;

total_cost using gurobi: 0.0
solve_time using gurobi: 3612.569581 

*******************************************************************************

